NAME : berlin52.tsp
TYPE : TOUR
DIMENSION : 52
TOUR_LENGTH : 8011.196547161451
TOUR_SECTION
1
22
32
49
44
34
35
36
39
40
37
38
48
24
5
15
6
4
25
46
16
50
20
23
31
18
3
17
21
42
7
2
30
29
47
26
28
27
13
14
52
11
12
51
33
43
10
9
8
41
19
45
-1
